p cnf 16 12
-7 -5 -16 3 10 -13 6 1 -12 14 4 0
2 10 0
-13 8 5 15 0
14 -6 9 3 -1 7 -15 10 5 2 11 -12 4 0
-7 14 -12 16 9 -8 -5 -2 -1 10 13 -11 4 6 -15 0
14 -16 0
-5 2 11 -8 6 0
-12 4 1 0
6 -11 10 -16 0
2 -3 0
-1 -3 4 -10 0
-6 9 11 -1 16 15 10 2 13 -4 3 -14 -7 0
